RT is False
Default write of storage_offers_DA.csv just to have a file (but constraint should be inactive)
Reading model...
...model read.
creating competitive generators file...
...competitive generators recorded.
Loading data...
.. day-ahead data with real-time VRE data read.
Compiling instance...
...instance created.
Creating Offer Mitigation (model will solve as dispatch if TRUE)...
NOTE: storage offers will not be mitigated
...storage offer mitigation file created
Converting model to MPEC...
...converted
NOTE: initial MIP solve with only storage competitive to get feasible solution
Solving...

Welcome to IBM(R) ILOG(R) CPLEX(R) Interactive Optimizer 12.9.0.0
  with Simplex, Mixed Integer & Barrier Optimizers
5725-A06 5725-A29 5724-Y48 5724-Y49 5724-Y54 5724-Y55 5655-Y21
Copyright IBM Corp. 1988, 2019.  All Rights Reserved.

Type 'help' for a list of available commands.
Type 'help' followed by a command name for more
information on commands.

CPLEX> Logfile 'cplex.log' closed.
Logfile 'C:\Users\Luke\Desktop\test919\logs\tmprgv5roy5.cplex.log' open.
CPLEX> New value for parallel optimization mode: -1
CPLEX> New value for mixed integer optimality gap tolerance: 0.01
CPLEX> New value for integrality tolerance: 1e-09
CPLEX> New value for feasibility tolerance: 0.01
CPLEX> New value for deterministic time limit in ticks: 75000
CPLEX> Problem 'C:\Users\Luke\Desktop\test919\logs\tmp9droj2is.pyomo.lp' read.
Read time = 0.20 sec. (14.73 ticks)
CPLEX> Problem name         : C:\Users\Luke\Desktop\test919\logs\tmp9droj2is.pyomo.lp
Objective sense      : Maximize
Variables            :   53805  [Nneg: 1,  Box: 22000,  Free: 4464,
                                 Binary: 27340]
Objective nonzeros   :    9078
Linear constraints   :  123205  [Less: 41346,  Greater: 59096,  Equal: 22763]
  Nonzeros           :  291705
  RHS nonzeros       :   67491

Variables            : Min LB: -5000.000        Max UB: 1000000.       
Objective nonzeros   : Min   : 0.2250000        Max   : 2500.000       
Linear constraints   :
  Nonzeros           : Min   : 0.2250000        Max   : 1000000.       
  RHS nonzeros       : Min   : 0.2250000        Max   : 1000000.       
CPLEX> CPXPARAM_Parallel                                -1
CPXPARAM_Simplex_Tolerances_Feasibility          0.01
CPXPARAM_DetTimeLimit                            75000
CPXPARAM_MIP_Tolerances_MIPGap                   0.01
CPXPARAM_MIP_Tolerances_Integrality              1.0000000000000001e-09
Tried aggregator 3 times.
MIP Presolve eliminated 88678 rows and 19026 columns.
MIP Presolve added 3354 rows and 0 columns.
MIP Presolve modified 24849 coefficients.
Aggregator did 12959 substitutions.
Reduced MIP has 24922 rows, 21264 columns, and 71046 nonzeros.
Reduced MIP has 8415 binaries, 0 generals, 0 SOSs, and 0 indicators.
Presolve time = 0.25 sec. (173.32 ticks)
Probing fixed 394 vars, tightened 2868 bounds.
Probing time = 1.42 sec. (905.16 ticks)
Tried aggregator 2 times.
MIP Presolve eliminated 896 rows and 796 columns.
MIP Presolve modified 2234 coefficients.
Aggregator did 41 substitutions.
Reduced MIP has 23985 rows, 20427 columns, and 68325 nonzeros.
Reduced MIP has 8018 binaries, 0 generals, 0 SOSs, and 0 indicators.
Presolve time = 0.09 sec. (69.23 ticks)
Probing time = 0.03 sec. (15.41 ticks)
Clique table members: 6517.
MIP emphasis: balance optimality and feasibility.
MIP search method: dynamic search.
Parallel mode: opportunistic, using up to 24 threads.
Root relaxation solution time = 0.44 sec. (523.58 ticks)

        Nodes                                         Cuts/
   Node  Left     Objective  IInf  Best Integer    Best Bound    ItCnt     Gap

      0     0       20.7966   738                     20.7966     3796         
      0     0       20.7966   608                   Cuts: 697     4165         
      0     0       20.7966   453                   Cuts: 430     4377         
      0     0       20.7966   389                   Cuts: 200     4481         
      0     0       20.7966   355                   Cuts: 103     4548         
      0     0       20.7966   305                   Cuts: 107     4603         
      0     0       20.7966   291                    Cuts: 56     4630         
      0     0       20.7966   268                    Cuts: 30     4647         
      0     0       20.7966   259                    Cuts: 16     4656         
      0     0       20.7966   255                     Cuts: 8     4660         
      0     0       20.7966   254                     Cuts: 5     4661         
      0     5       20.7966   250                     20.7966     4664         
Elapsed time = 9.94 sec. (6565.44 ticks, tree = 0.02 MB, solutions = 0)
    724   173       20.7966   220                     20.7966     4930         
   1442   783       20.7966   186                     20.7966     7381         
   1849   894       20.7966   188                     20.7966     7635         
   1852   834       20.7966   196                     20.7966     7577         
   1910  1784       20.7966   155                     20.7966     8670         
   2127  2021       20.7966   158                     20.7966     8778         
   2754  2071       20.7966   157                     20.7966     8779         
   3704  2043       20.7966   151                     20.7966     8759         
*  4198  3122      integral     0       20.7966       20.7966     9242    0.00%
   5313  2958    infeasible             20.7966       20.7966     9207    0.00%
Elapsed time = 16.39 sec. (9706.17 ticks, tree = 22.44 MB, solutions = 8)

Clique cuts applied:  4
Implied bound cuts applied:  17
Flow cuts applied:  599
Mixed integer rounding cuts applied:  8
Gomory fractional cuts applied:  24

Root node processing (before b&c):
  Real time             =    9.20 sec. (6510.44 ticks)
Parallel b&c, 24 threads:
  Real time             =    7.33 sec. (3202.65 ticks)
  Sync time (average)   =    0.29 sec.
  Wait time (average)   =    0.00 sec.
                          ------------
Total (root+branch&cut) =   16.53 sec. (9713.09 ticks)

Solution pool: 8 solutions saved.

MIP - Integer optimal solution:  Objective =  2.0796627004e+01
Solution time =   16.55 sec.  Iterations = 11607  Nodes = 5314
Deterministic time = 9713.25 ticks  (587.01 ticks/sec)

CPLEX> Incumbent solution written to file 'C:\Users\Luke\Desktop\test919\logs\tmpkf2k659w.cplex.sol'.
CPLEX> NOTE: no warmstart specified for MIP iteration, default behavior is true
NOTE: resolving with all competitive generators using storage-only solution to warmstart
Solving...

Welcome to IBM(R) ILOG(R) CPLEX(R) Interactive Optimizer 12.9.0.0
  with Simplex, Mixed Integer & Barrier Optimizers
5725-A06 5725-A29 5724-Y48 5724-Y49 5724-Y54 5724-Y55 5655-Y21
Copyright IBM Corp. 1988, 2019.  All Rights Reserved.

Type 'help' for a list of available commands.
Type 'help' followed by a command name for more
information on commands.

CPLEX> Logfile 'cplex.log' closed.
Logfile 'C:\Users\Luke\Desktop\test919\logs\tmpgxplyoba.cplex.log' open.
CPLEX> New value for parallel optimization mode: -1
CPLEX> New value for mixed integer optimality gap tolerance: 0.01
CPLEX> New value for integrality tolerance: 1e-09
CPLEX> New value for feasibility tolerance: 0.01
CPLEX> New value for deterministic time limit in ticks: 75000
CPLEX> Problem 'C:\Users\Luke\Desktop\test919\logs\tmpeatdlp9_.pyomo.lp' read.
Read time = 0.20 sec. (14.75 ticks)
CPLEX> MIP start file 'C:\Users\Luke\Desktop\test919\logs\tmp1mqjvoy1.cplex.mst' read.
CPLEX> Problem name         : C:\Users\Luke\Desktop\test919\logs\tmpeatdlp9_.pyomo.lp
Objective sense      : Maximize
Variables            :   54525  [Nneg: 1,  Box: 22720,  Free: 4464,
                                 Binary: 27340]
Objective nonzeros   :    9798
Linear constraints   :  123205  [Less: 41346,  Greater: 59096,  Equal: 22763]
  Nonzeros           :  291705
  RHS nonzeros       :   67491

Variables            : Min LB: -5000.000        Max UB: 1000000.       
Objective nonzeros   : Min   : 0.2250000        Max   : 2500.000       
Linear constraints   :
  Nonzeros           : Min   : 0.2250000        Max   : 1000000.       
  RHS nonzeros       : Min   : 0.2250000        Max   : 1000000.       
CPLEX> CPXPARAM_Parallel                                -1
CPXPARAM_Simplex_Tolerances_Feasibility          0.01
CPXPARAM_DetTimeLimit                            75000
CPXPARAM_MIP_Tolerances_MIPGap                   0.01
CPXPARAM_MIP_Tolerances_Integrality              1.0000000000000001e-09
Warning:  No solution found from 1 MIP starts.
Retaining values of one MIP start for possible repair.
Tried aggregator 3 times.
MIP Presolve eliminated 88678 rows and 19746 columns.
MIP Presolve added 3354 rows and 0 columns.
MIP Presolve modified 24849 coefficients.
Aggregator did 12959 substitutions.
Reduced MIP has 24922 rows, 21264 columns, and 71046 nonzeros.
Reduced MIP has 8415 binaries, 0 generals, 0 SOSs, and 0 indicators.
Presolve time = 0.25 sec. (173.68 ticks)
Probing fixed 394 vars, tightened 2868 bounds.
Probing time = 1.47 sec. (905.16 ticks)
Tried aggregator 2 times.
MIP Presolve eliminated 896 rows and 796 columns.
MIP Presolve modified 2234 coefficients.
Aggregator did 41 substitutions.
Reduced MIP has 23985 rows, 20427 columns, and 68325 nonzeros.
Reduced MIP has 8018 binaries, 0 generals, 0 SOSs, and 0 indicators.
Presolve time = 0.09 sec. (69.23 ticks)
Probing time = 0.03 sec. (15.41 ticks)
Clique table members: 6517.
MIP emphasis: balance optimality and feasibility.
MIP search method: dynamic search.
Parallel mode: opportunistic, using up to 24 threads.
Root relaxation solution time = 0.44 sec. (523.58 ticks)

        Nodes                                         Cuts/
   Node  Left     Objective  IInf  Best Integer    Best Bound    ItCnt     Gap

      0     0       20.7966   738                     20.7966     3796         
      0     0       20.7966   608                   Cuts: 697     4165         
      0     0       20.7966   453                   Cuts: 430     4377         
      0     0       20.7966   389                   Cuts: 200     4481         
      0     0       20.7966   355                   Cuts: 103     4548         
      0     0       20.7966   305                   Cuts: 107     4603         
      0     0       20.7966   291                    Cuts: 56     4630         
      0     0       20.7966   268                    Cuts: 30     4647         
      0     0       20.7966   259                    Cuts: 16     4656         
      0     0       20.7966   255                     Cuts: 8     4660         
      0     0       20.7966   254                     Cuts: 5     4661         
Repair heuristic found nothing.
      0     5    -1946.4985   248                     20.7966     4721         
Elapsed time = 10.16 sec. (6734.16 ticks, tree = 0.02 MB, solutions = 0)
    706   140       20.7966   220                     20.7966     4904         
   1282   811       20.7966   198                     20.7966     6339         
   1572  1170       20.7966   176                     20.7966     6906         
   1777  1702       20.7966   163                     20.7966     7518         
   2055  1689       20.7966   149                     20.7966     7489         
   2594  2039       20.7966   186                     20.7966     7667         
   3619  2308       20.7966   207                     20.7966     7788         
   4546  2374    -3067.1429   151                     20.7966     7852         
*  4686  2403      integral     0       20.7966       20.7966     7861    0.00%

Clique cuts applied:  4
Implied bound cuts applied:  17
Flow cuts applied:  599
Mixed integer rounding cuts applied:  8
Gomory fractional cuts applied:  24

Root node processing (before b&c):
  Real time             =    9.59 sec. (6698.66 ticks)
Parallel b&c, 24 threads:
  Real time             =    6.33 sec. (2876.43 ticks)
  Sync time (average)   =    0.25 sec.
  Wait time (average)   =    0.00 sec.
                          ------------
Total (root+branch&cut) =   15.92 sec. (9575.10 ticks)

Solution pool: 13 solutions saved.

MIP - Integer optimal solution:  Objective =  2.0796627004e+01
Solution time =   15.92 sec.  Iterations = 9126  Nodes = 5530
Deterministic time = 9575.25 ticks  (601.39 ticks/sec)

CPLEX> Incumbent solution written to file 'C:\Users\Luke\Desktop\test919\logs\tmpoi13dkjh.cplex.sol'.
CPLEX> Exporting results... 
